75
300
210	2
209	1
207	1
205	1
202	1
201	1
197	1
193	1
192	1
188	1
186	1
185	1
184	1
182	1
181	1
177	1
176	1
173	1
172	1
168	1
166	1
165	1
164	1
161	3
160	2
159	1
158	1
157	1
153	2
152	2
149	1
147	1
144	2
133	1
131	1
129	1
128	1
127	1
125	1
124	1
122	2
121	1
120	2
115	2
112	1
110	1
109	1
107	4
106	2
105	1
104	3
100	1
97	2
95	1
93	2
92	1
91	1
89	1
87	1
85	1
83	1
81	1
78	1
77	2
76	2
75	2
73	1
71	1
70	1
69	1
64	2
63	2
62	2
61	2
60	1
